(set-info :smt-lib-version 2.6)
(set-logic QF_UF)
(set-info :source |
Generated by: David Deharbe, CLEARSY
Generated on: 2019-09-06
Generator: bxml;pog;pog2smt (Atelier B)
Application: B-method
Target solver: CVC4, Z3
|)
(set-info :license "https://creativecommons.org/licenses/by-nc/4.0/")
(set-info :category "industrial")
(set-info :status sat)
; Prelude
(declare-sort U 0)
(declare-fun |*i| (U U) U)
(declare-fun |+i| (U U) U)
(declare-fun |-i| (U U) U)
(declare-fun idiv (U U) U)
(declare-fun |*r| (U U) U)
(declare-fun |+r| (U U) U)
(declare-fun |-r| (U U) U)
(declare-fun rdiv (U U) U)
(declare-fun modulo (U U) U)
(declare-fun |<i| (U U) Bool)
(declare-fun |<=i| (U U) Bool)
(declare-fun |>i| (U U) Bool)
(declare-fun |>=i| (U U) Bool)
(declare-fun |<r| (U U) Bool)
(declare-fun |<=r| (U U) Bool)
(declare-fun |>r| (U U) Bool)
(declare-fun |>=r| (U U) Bool)
(declare-fun iuminus (U) U)
(declare-fun ruminus (U) U)
(declare-fun TRUE () U)
(declare-fun FALSE () U)
(assert (not (= TRUE FALSE)))
(declare-fun empty () U)
(declare-fun bool (Bool) U)
(declare-fun BOOL () U)
(declare-fun INT () U)
(declare-fun INTEGER () U)
(declare-fun NAT () U)
(declare-fun NAT1 () U)
(declare-fun NATURAL () U)
(declare-fun NATURAL1 () U)
(declare-fun FLOAT () U)
(declare-fun MaxInt () U)
(declare-fun MinInt () U)
(declare-fun |STRING| () U)
(declare-fun REAL () U)
(declare-fun set_prod (U U) U)
(declare-fun set_diff (U U) U)
(declare-fun mapplet (U U) U)
(declare-fun |**i| (U U) U)
(declare-fun |**r| (U U) U)
(declare-fun |+->| (U U) U)
(declare-fun |+->>| (U U) U)
(declare-fun |-->| (U U) U)
(declare-fun |-->>| (U U) U)
(declare-fun |<->| (U U) U)
(declare-fun |>+>| (U U) U)
(declare-fun |>->| (U U) U)
(declare-fun |>+>>| (U U) U)
(declare-fun |>->>| (U U) U)
(declare-fun |->| (U U) U)
(declare-fun interval (U U) U)
(declare-fun composition (U U) U)
(declare-fun binary_inter (U U) U)
(declare-fun restriction_head (U U) U)
(declare-fun semicolon (U U) U)
(declare-fun |<+| (U U) U)
(declare-fun |<-| (U U) U)
(declare-fun domain_subtraction (U U) U)
(declare-fun domain_restriction (U U) U)
(declare-fun |><| (U U) U)
(declare-fun parallel_product (U U) U)
(declare-fun binary_union (U U) U)
(declare-fun restriction_tail (U U) U)
(declare-fun concatenate (U U) U)
(declare-fun range_restriction (U U) U)
(declare-fun range_subtraction (U U) U)
(declare-fun image (U U) U)
(declare-fun apply (U U) U)
(declare-fun prj1 (U U) U)
(declare-fun prj2 (U U) U)
(declare-fun iterate (U U) U)
(declare-fun |const| (U U) U)
(declare-fun rank (U U) U)
(declare-fun father (U U) U)
(declare-fun subtree (U U) U)
(declare-fun arity (U U) U)
(declare-fun |+f| (U U) U)
(declare-fun |-f| (U U) U)
(declare-fun |*f| (U U) U)
(declare-fun |fdiv| (U U) U)
(declare-fun tbin (U U U) U)
(declare-fun son (U U U) U)
(declare-fun mem (U U) Bool)
(declare-fun subset (U U) Bool)
(declare-fun strict_subset (U U) Bool)
(declare-fun |<=f| (U U) Bool)
(declare-fun |<f| (U U) Bool)
(declare-fun |>=f| (U U) Bool)
(declare-fun |>f| (U U) Bool)
(declare-fun imax (U) U)
(declare-fun imin (U) U)
(declare-fun rmax (U) U)
(declare-fun rmin (U) U)
(declare-fun card (U) U)
(declare-fun dom (U) U)
(declare-fun ran (U) U)
(declare-fun POW (U) U)
(declare-fun POW1 (U) U)
(declare-fun FIN (U) U)
(declare-fun FIN1 (U) U)
(declare-fun union (U) U)
(declare-fun inter (U) U)
(declare-fun seq (U) U)
(declare-fun seq1 (U) U)
(declare-fun iseq (U) U)
(declare-fun iseq1 (U) U)
(declare-fun inverse (U) U)
(declare-fun size (U) U)
(declare-fun perm (U) U)
(declare-fun first (U) U)
(declare-fun last (U) U)
(declare-fun id (U) U)
(declare-fun closure (U) U)
(declare-fun closure1 (U) U)
(declare-fun tail (U) U)
(declare-fun front (U) U)
(declare-fun reverse (U) U)
(declare-fun rev (U) U)
(declare-fun conc (U) U)
(declare-fun succ (U) U)
(declare-fun pred (U) U)
(declare-fun rel (U) U)
(declare-fun fnc (U) U)
(declare-fun real (U) U)
(declare-fun floor (U) U)
(declare-fun ceiling (U) U)
(declare-fun tree (U) U)
(declare-fun btree (U) U)
(declare-fun top (U) U)
(declare-fun sons (U) U)
(declare-fun prefix (U) U)
(declare-fun postfix (U) U)
(declare-fun sizet (U) U)
(declare-fun mirror (U) U)
(declare-fun left (U) U)
(declare-fun right (U) U)
(declare-fun infix (U) U)
(declare-fun ubin (U) U)
(declare-fun SEQ (U) U)
(declare-fun SET (U) U)
; Opaque formulas
(declare-fun e12 () U)
(declare-fun e0 () U)
(declare-fun e82 () U)
(declare-fun e16 () U)
(declare-fun e40 () U)
(declare-fun e27 () U)
(declare-fun e22 () U)
(declare-fun e45 () U)
(declare-fun e24 () U)
(declare-fun e31 () U)
(declare-fun e32 () U)
(declare-fun e14 () U)
(declare-fun e29 () U)
(declare-fun e23 () U)
(declare-fun e34 () U)
(declare-fun e36 () U)
(declare-fun e38 () U)
(declare-fun e13 () U)
(declare-fun e47 () U)
(declare-fun e49 () U)
(declare-fun e51 () U)
(declare-fun e53 () U)
(declare-fun e55 () U)
(declare-fun e57 () U)
(declare-fun e59 () U)
(declare-fun e61 () U)
(declare-fun e63 () U)
(declare-fun e65 () U)
(declare-fun e67 () U)
(declare-fun e18 () U)
(declare-fun e20 () U)
(declare-fun g_s0_1 () U)
(declare-fun g_s1_2 () U)
(declare-fun g_s10_11 () U)
(declare-fun g_s11_15 () U)
(declare-fun g_s12_17 () U)
(declare-fun g_s13_19 () U)
(declare-fun g_s14_21 () U)
(declare-fun g_s15_25 () U)
(declare-fun g_s16_26 () U)
(declare-fun g_s17_28 () U)
(declare-fun g_s18_30 () U)
(declare-fun g_s19_33 () U)
(declare-fun g_s2_3 () U)
(declare-fun g_s20_35 () U)
(declare-fun g_s21_37 () U)
(declare-fun g_s22_39 () U)
(declare-fun g_s23_41 () U)
(declare-fun g_s24_43 () U)
(declare-fun g_s25_42 () U)
(declare-fun g_s26_44 () U)
(declare-fun g_s27_46 () U)
(declare-fun g_s28_48 () U)
(declare-fun g_s29_50 () U)
(declare-fun g_s3_5 () U)
(declare-fun g_s30_52 () U)
(declare-fun g_s31_54 () U)
(declare-fun g_s32_56 () U)
(declare-fun g_s33_58 () U)
(declare-fun g_s34_60 () U)
(declare-fun g_s35_62 () U)
(declare-fun g_s36_64 () U)
(declare-fun g_s37_66 () U)
(declare-fun g_s38_68 () U)
(declare-fun g_s39_69 () U)
(declare-fun g_s4_4 () U)
(declare-fun g_s40_70 () U)
(declare-fun g_s41_71 () U)
(declare-fun g_s42_72 () U)
(declare-fun g_s43_73 () U)
(declare-fun g_s44_74 () U)
(declare-fun g_s45_75 () U)
(declare-fun g_s46_76 () U)
(declare-fun g_s47_77 () U)
(declare-fun g_s48_78 () U)
(declare-fun g_s49_79 () U)
(declare-fun g_s5_7 () U)
(declare-fun g_s50_80 () U)
(declare-fun g_s51_81 () U)
(declare-fun g_s52_83 () U)
(declare-fun g_s53_84 () U)
(declare-fun g_s54_85 () U)
(declare-fun g_s55_86 () U)
(declare-fun g_s56_87 () U)
(declare-fun g_s57_88 () U)
(declare-fun g_s58_89 () U)
(declare-fun g_s59_90 () U)
(declare-fun g_s6_6 () U)
(declare-fun g_s60_91 () U)
(declare-fun g_s61_92 () U)
(declare-fun g_s7_9 () U)
(declare-fun g_s8_8 () U)
(declare-fun g_s9_10 () U)
; Defines
(define-fun |def_B definitions| () Bool (and (= NAT (interval e0 MaxInt)) (= INT (interval MinInt MaxInt))))
(define-fun |def_ctx| () Bool (and (= g_s0_1 (SET (mapplet g_s2_3 g_s1_2))) (mem g_s3_5 g_s4_4) (mem g_s5_7 g_s6_6) (mem g_s7_9 g_s8_8) (mem g_s9_10 g_s8_8) (mem g_s10_11 g_s8_8) (= g_s3_5 e12) (= g_s5_7 e13) (= g_s7_9 e14) (and (|>=i| g_s9_10 e0) (|<=i| g_s9_10 g_s7_9)) (and (|>=i| g_s10_11 e0) (|<=i| g_s10_11 g_s7_9)) (not (= g_s9_10 g_s10_11)) (= g_s11_15 (SET (mapplet g_s10_11 g_s9_10))) (|<=i| g_s9_10 e16) (|<=i| g_s10_11 e16) (= g_s12_17 (SET (mapplet (mapplet FALSE g_s10_11) (mapplet TRUE g_s9_10)))) (= g_s4_4 (interval e0 e12)) (= g_s6_6 (interval e0 e13)) (= g_s8_8 (interval e0 e14))))
(define-fun |def_seext| () Bool (and (mem g_s12_17 (|+->| BOOL g_s8_8)) (mem g_s12_17 (|+->| BOOL g_s6_6)) (mem g_s12_17 (|+->| BOOL g_s4_4))))
(define-fun |def_lprp| () Bool (and (= g_s13_19 e18) (= g_s14_21 e20) (= g_s15_25 (|*i| (|*i| (|*i| e24 e24) e23) e22)) (= g_s16_26 e0) (= g_s17_28 e27) (= g_s18_30 e29) (= g_s19_33 (idiv (|*i| g_s18_30 e32) e31)) (= g_s20_35 e34) (= g_s21_37 e36) (= g_s22_39 e38) (= g_s23_41 e40) (= g_s24_43 (|*i| g_s25_42 e32)) (= g_s26_44 e40) (= g_s25_42 (|*i| (|*i| g_s23_41 e45) e22)) (= g_s27_46 (|*i| (|*i| e16 e45) e22)) (= g_s28_48 e47) (= g_s29_50 e49) (= g_s30_52 e51) (= g_s31_54 e53) (= g_s32_56 e55) (= g_s33_58 e57) (= g_s34_60 e59) (= g_s35_62 e61) (= g_s36_64 e63) (= g_s37_66 e65) (= g_s38_68 e67)))
(define-fun |def_inprp| () Bool true)
(define-fun |def_inext| () Bool true)
(define-fun |def_mchcst| () Bool true)
(define-fun |def_aprp| () Bool (and (= g_s39_69 (SET (mapplet g_s44_74 (mapplet g_s43_73 (mapplet g_s42_72 (mapplet g_s41_71 g_s40_70)))))) (mem g_s13_19 g_s4_4) (mem g_s14_21 g_s4_4) (not (= g_s13_19 g_s14_21)) (mem g_s15_25 NAT1) (mem g_s45_75 g_s4_4) (|<i| g_s45_75 (|-i| g_s3_5 g_s5_7)) (mem g_s46_76 g_s4_4) (= g_s46_76 (|+i| g_s45_75 g_s15_25)) (mem g_s16_26 g_s4_4) (mem g_s30_52 g_s4_4) (mem g_s17_28 NAT1) (mem g_s18_30 NAT1) (mem g_s15_25 NAT1) (mem g_s47_77 g_s4_4) (mem g_s48_78 g_s4_4) (mem g_s49_79 g_s4_4) (= g_s48_78 (|+i| g_s47_77 g_s17_28)) (= g_s49_79 (|+i| g_s47_77 g_s18_30)) (mem g_s19_33 g_s6_6) (mem g_s20_35 g_s4_4) (|<=i| g_s20_35 e34) (mem g_s21_37 NAT1) (mem g_s50_80 g_s4_4) (|<i| g_s50_80 (|-i| g_s3_5 g_s5_7)) (mem g_s51_81 g_s4_4) (= g_s51_81 (|+i| g_s50_80 g_s21_37)) (mem g_s23_41 g_s4_4) (|<=i| e82 g_s23_41) (mem g_s31_54 g_s4_4) (mem g_s32_56 g_s4_4) (mem g_s52_83 g_s4_4) (|<i| g_s52_83 (|-i| g_s3_5 g_s5_7)) (mem g_s53_84 g_s4_4) (mem g_s24_43 NAT1) (= g_s53_84 (|+i| g_s52_83 g_s24_43)) (mem g_s26_44 NATURAL1) (mem g_s54_85 g_s4_4) (= g_s54_85 (|+i| g_s52_83 g_s26_44)) (mem g_s25_42 g_s4_4) (mem g_s33_58 g_s4_4) (mem g_s37_66 g_s4_4) (mem g_s34_60 g_s4_4) (mem g_s27_46 g_s6_6) (|<i| (|*i| e16 g_s27_46) g_s5_7) (mem g_s22_39 NAT1) (mem g_s55_86 g_s6_6) (mem g_s56_87 g_s6_6) (= g_s56_87 (|+i| g_s55_86 g_s22_39)) (mem g_s28_48 g_s4_4) (mem g_s29_50 g_s4_4) (mem g_s38_68 g_s4_4) (mem g_s35_62 g_s4_4) (mem g_s36_64 g_s4_4) (mem g_s57_88 g_s4_4) (mem g_s58_89 g_s4_4) (mem g_s59_90 g_s4_4) (mem g_s60_91 g_s4_4) (mem g_s61_92 g_s4_4)))
(define-fun |def_abs| () Bool true)
(define-fun |def_inv| () Bool true)
(define-fun |def_ass| () Bool true)
(define-fun |def_sets| () Bool true)
; PO group 0 
(assert |def_B definitions|)
(assert |def_ctx|)
(assert |def_mchcst|)
(assert |def_aprp|)
(assert |def_sets|)
(define-fun lh_1 () Bool (= g_s13_19 e18))
(define-fun lh_2 () Bool (= g_s14_21 e20))
(define-fun lh_3 () Bool (= g_s15_25 (|*i| (|*i| (|*i| e24 e24) e23) e22)))
(define-fun lh_4 () Bool (= g_s16_26 e0))
(define-fun lh_5 () Bool (= g_s17_28 e27))
(define-fun lh_6 () Bool (= g_s18_30 e29))
; PO 1 in group 0
(assert (not (=> (and lh_1 lh_2 lh_3 lh_4 lh_5 lh_6) (not (= e31 e0)))))
(check-sat)
(exit)